&inputpp 
 outdir = '.',
 prefix='crystal',
 seedname = 'mgo',
/
