&inputpp 
 prefix='crystal',
 seedname = 'mgo',
 write_mmn = .true.,
 write_amn = .true.,
 outdir='.',
/
