&inputpp 
 prefix='crystal_open',
 seedname = 'urea',
 write_mmn = .true.,
 write_amn = .true.,
 outdir='.',
/
