&inputpp 
 outdir = '.',
 prefix='crystal_open',
 seedname = 'urea',
/
