&inputpp 
 prefix='crystal_open',
 seedname = 'graph',
 write_mmn = .true.,
 write_amn = .true.,
 outdir='.',
/
