&control
 title='crystal',
 prefix='crystal',
 pseudo_dir='../../data',
 outdir='.',
/
&system
 ibrav=0,
 celldm(1)=1.0,
 nat=4,
 ntyp=1,
 ecutwfc=80.0,
 ecutrho=320.0,
 nosym=.true.
/
&electrons
 conv_thr = 1d-8,
/
ATOMIC_SPECIES
C    12.010700 c.UPF

ATOMIC_POSITIONS crystal
C    0.00000000     0.00000000     0.25000000
C    0.00000000     0.00000000     0.75000000
C    0.33333333     0.66666667     0.25000000
C    0.66666667     0.33333333     0.75000000

K_POINTS automatic
8 8 2 0 0 0

CELL_PARAMETERS
    4.641167382367     0.000000000000     0.000000000000
   -2.320583691184     4.019368856346     0.000000000000
    0.000000000000     0.000000000000    12.653606185802
