num_wann = 8
num_iter = 20000

begin unit_cell_cart
bohr
    4.641167382367     0.000000000000     0.000000000000
   -2.320583691184     4.019368856346     0.000000000000
    0.000000000000     0.000000000000    12.653606185802
end unit_cell_cart

begin atoms_frac
c    0.00000000     0.00000000     0.25000000
c    0.00000000     0.00000000     0.75000000
c    0.33333333     0.66666667     0.25000000
c    0.66666667     0.33333333     0.75000000
end atoms_frac

begin projections
random
end projections

search_shells = 24
kmesh_tol = 1d-3
mp_grid : 8 8 2

begin kpoints
    0.000000000000000    0.000000000000000    0.000000000000000    0.0078125000
    0.000000000000000    0.000000000000000   -0.500000000000000    0.0078125000
    0.000000000000000    0.125000000000000    0.000000000000000    0.0078125000
    0.000000000000000    0.125000000000000   -0.500000000000000    0.0078125000
    0.000000000000000    0.250000000000000    0.000000000000000    0.0078125000
    0.000000000000000    0.250000000000000   -0.500000000000000    0.0078125000
    0.000000000000000    0.375000000000000    0.000000000000000    0.0078125000
    0.000000000000000    0.375000000000000   -0.500000000000000    0.0078125000
    0.000000000000000   -0.500000000000000    0.000000000000000    0.0078125000
    0.000000000000000   -0.500000000000000   -0.500000000000000    0.0078125000
    0.000000000000000   -0.375000000000000    0.000000000000000    0.0078125000
    0.000000000000000   -0.375000000000000    0.500000000000000    0.0078125000
    0.000000000000000   -0.250000000000000    0.000000000000000    0.0078125000
    0.000000000000000   -0.250000000000000    0.500000000000000    0.0078125000
    0.000000000000000   -0.125000000000000    0.000000000000000    0.0078125000
    0.000000000000000   -0.125000000000000    0.500000000000000    0.0078125000
    0.125000000000000   -0.000000000000000    0.000000000000000    0.0078125000
    0.125000000000000   -0.000000000000000   -0.500000000000000    0.0078125000
    0.125000000000000    0.125000000000000    0.000000000000000    0.0078125000
    0.125000000000000    0.125000000000000   -0.500000000000000    0.0078125000
    0.125000000000000    0.250000000000000    0.000000000000000    0.0078125000
    0.125000000000000    0.250000000000000   -0.500000000000000    0.0078125000
    0.125000000000000    0.375000000000000    0.000000000000000    0.0078125000
    0.125000000000000    0.375000000000000   -0.500000000000000    0.0078125000
    0.125000000000000   -0.500000000000000    0.000000000000000    0.0078125000
    0.125000000000000   -0.500000000000000   -0.500000000000000    0.0078125000
    0.125000000000000   -0.375000000000000    0.000000000000000    0.0078125000
    0.125000000000000   -0.375000000000000   -0.500000000000000    0.0078125000
    0.125000000000000   -0.250000000000000    0.000000000000000    0.0078125000
    0.125000000000000   -0.250000000000000   -0.500000000000000    0.0078125000
    0.125000000000000   -0.125000000000000    0.000000000000000    0.0078125000
    0.125000000000000   -0.125000000000000   -0.500000000000000    0.0078125000
    0.250000000000000   -0.000000000000000    0.000000000000000    0.0078125000
    0.250000000000000   -0.000000000000000   -0.500000000000000    0.0078125000
    0.250000000000000    0.125000000000000    0.000000000000000    0.0078125000
    0.250000000000000    0.125000000000000   -0.500000000000000    0.0078125000
    0.250000000000000    0.250000000000000    0.000000000000000    0.0078125000
    0.250000000000000    0.250000000000000   -0.500000000000000    0.0078125000
    0.250000000000000    0.375000000000000    0.000000000000000    0.0078125000
    0.250000000000000    0.375000000000000   -0.500000000000000    0.0078125000
    0.250000000000000   -0.500000000000000    0.000000000000000    0.0078125000
    0.250000000000000   -0.500000000000000   -0.500000000000000    0.0078125000
    0.250000000000000   -0.375000000000000    0.000000000000000    0.0078125000
    0.250000000000000   -0.375000000000000   -0.500000000000000    0.0078125000
    0.250000000000000   -0.250000000000000    0.000000000000000    0.0078125000
    0.250000000000000   -0.250000000000000   -0.500000000000000    0.0078125000
    0.250000000000000   -0.125000000000000    0.000000000000000    0.0078125000
    0.250000000000000   -0.125000000000000   -0.500000000000000    0.0078125000
    0.375000000000000   -0.000000000000000    0.000000000000000    0.0078125000
    0.375000000000000   -0.000000000000000   -0.500000000000000    0.0078125000
    0.375000000000000    0.125000000000000    0.000000000000000    0.0078125000
    0.375000000000000    0.125000000000000   -0.500000000000000    0.0078125000
    0.375000000000000    0.250000000000000    0.000000000000000    0.0078125000
    0.375000000000000    0.250000000000000   -0.500000000000000    0.0078125000
    0.375000000000000    0.375000000000000    0.000000000000000    0.0078125000
    0.375000000000000    0.375000000000000   -0.500000000000000    0.0078125000
    0.375000000000000   -0.500000000000000    0.000000000000000    0.0078125000
    0.375000000000000   -0.500000000000000   -0.500000000000000    0.0078125000
    0.375000000000000   -0.375000000000000    0.000000000000000    0.0078125000
    0.375000000000000   -0.375000000000000   -0.500000000000000    0.0078125000
    0.375000000000000   -0.250000000000000    0.000000000000000    0.0078125000
    0.375000000000000   -0.250000000000000   -0.500000000000000    0.0078125000
    0.375000000000000   -0.125000000000000    0.000000000000000    0.0078125000
    0.375000000000000   -0.125000000000000   -0.500000000000000    0.0078125000
   -0.500000000000000    0.000000000000000    0.000000000000000    0.0078125000
   -0.500000000000000    0.000000000000000   -0.500000000000000    0.0078125000
   -0.500000000000000    0.125000000000000    0.000000000000000    0.0078125000
   -0.500000000000000    0.125000000000000   -0.500000000000000    0.0078125000
   -0.500000000000000    0.250000000000000    0.000000000000000    0.0078125000
   -0.500000000000000    0.250000000000000   -0.500000000000000    0.0078125000
   -0.500000000000000    0.375000000000000    0.000000000000000    0.0078125000
   -0.500000000000000    0.375000000000000   -0.500000000000000    0.0078125000
   -0.500000000000000   -0.500000000000000    0.000000000000000    0.0078125000
   -0.500000000000000   -0.500000000000000   -0.500000000000000    0.0078125000
    0.500000000000000   -0.375000000000000    0.000000000000000    0.0078125000
    0.500000000000000   -0.375000000000000    0.500000000000000    0.0078125000
    0.500000000000000   -0.250000000000000    0.000000000000000    0.0078125000
    0.500000000000000   -0.250000000000000    0.500000000000000    0.0078125000
    0.500000000000000   -0.125000000000000    0.000000000000000    0.0078125000
    0.500000000000000   -0.125000000000000    0.500000000000000    0.0078125000
   -0.375000000000000    0.000000000000000    0.000000000000000    0.0078125000
   -0.375000000000000    0.000000000000000    0.500000000000000    0.0078125000
   -0.375000000000000    0.125000000000000    0.000000000000000    0.0078125000
   -0.375000000000000    0.125000000000000    0.500000000000000    0.0078125000
   -0.375000000000000    0.250000000000000    0.000000000000000    0.0078125000
   -0.375000000000000    0.250000000000000    0.500000000000000    0.0078125000
   -0.375000000000000    0.375000000000000    0.000000000000000    0.0078125000
   -0.375000000000000    0.375000000000000    0.500000000000000    0.0078125000
   -0.375000000000000    0.500000000000000    0.000000000000000    0.0078125000
   -0.375000000000000    0.500000000000000    0.500000000000000    0.0078125000
   -0.375000000000000   -0.375000000000000    0.000000000000000    0.0078125000
   -0.375000000000000   -0.375000000000000    0.500000000000000    0.0078125000
   -0.375000000000000   -0.250000000000000    0.000000000000000    0.0078125000
   -0.375000000000000   -0.250000000000000    0.500000000000000    0.0078125000
   -0.375000000000000   -0.125000000000000    0.000000000000000    0.0078125000
   -0.375000000000000   -0.125000000000000    0.500000000000000    0.0078125000
   -0.250000000000000    0.000000000000000    0.000000000000000    0.0078125000
   -0.250000000000000    0.000000000000000    0.500000000000000    0.0078125000
   -0.250000000000000    0.125000000000000    0.000000000000000    0.0078125000
   -0.250000000000000    0.125000000000000    0.500000000000000    0.0078125000
   -0.250000000000000    0.250000000000000    0.000000000000000    0.0078125000
   -0.250000000000000    0.250000000000000    0.500000000000000    0.0078125000
   -0.250000000000000    0.375000000000000    0.000000000000000    0.0078125000
   -0.250000000000000    0.375000000000000    0.500000000000000    0.0078125000
   -0.250000000000000    0.500000000000000    0.000000000000000    0.0078125000
   -0.250000000000000    0.500000000000000    0.500000000000000    0.0078125000
   -0.250000000000000   -0.375000000000000    0.000000000000000    0.0078125000
   -0.250000000000000   -0.375000000000000    0.500000000000000    0.0078125000
   -0.250000000000000   -0.250000000000000    0.000000000000000    0.0078125000
   -0.250000000000000   -0.250000000000000    0.500000000000000    0.0078125000
   -0.250000000000000   -0.125000000000000    0.000000000000000    0.0078125000
   -0.250000000000000   -0.125000000000000    0.500000000000000    0.0078125000
   -0.125000000000000    0.000000000000000    0.000000000000000    0.0078125000
   -0.125000000000000    0.000000000000000    0.500000000000000    0.0078125000
   -0.125000000000000    0.125000000000000    0.000000000000000    0.0078125000
   -0.125000000000000    0.125000000000000    0.500000000000000    0.0078125000
   -0.125000000000000    0.250000000000000    0.000000000000000    0.0078125000
   -0.125000000000000    0.250000000000000    0.500000000000000    0.0078125000
   -0.125000000000000    0.375000000000000    0.000000000000000    0.0078125000
   -0.125000000000000    0.375000000000000    0.500000000000000    0.0078125000
   -0.125000000000000    0.500000000000000    0.000000000000000    0.0078125000
   -0.125000000000000    0.500000000000000    0.500000000000000    0.0078125000
   -0.125000000000000   -0.375000000000000    0.000000000000000    0.0078125000
   -0.125000000000000   -0.375000000000000    0.500000000000000    0.0078125000
   -0.125000000000000   -0.250000000000000    0.000000000000000    0.0078125000
   -0.125000000000000   -0.250000000000000    0.500000000000000    0.0078125000
   -0.125000000000000   -0.125000000000000    0.000000000000000    0.0078125000
   -0.125000000000000   -0.125000000000000    0.500000000000000    0.0078125000
end kpoints
