%nprocs=4
%mem=2GB
%chk=benzene-adz.chk
#p hf aug-cc-pvdz output=wfx 
 
title
 
0 1
C	0.000000 1.393557 0.000000
C	1.206855 0.696778 0.000000
C	1.206855 -0.696778 0.000000
C	0.000000 -1.393557 0.000000
C	-1.206855 -0.696778 0.000000
C	-1.206855 0.696778 0.000000
H	0.000000 2.478749 0.000000
H	2.146660 1.239375 0.000000
H	2.146660 -1.239375 0.000000
H	0.000000 -2.478749 0.000000
H	-2.146660 -1.239375 0.000000
H	-2.146660 1.239375 0.000000

benzene-adz.wfx

