&control
 title='crystal',
 prefix='crystal',
 pseudo_dir='.',
 calculation='vc-relax',
/
&system
 ibrav=0,
 nat=   128,
 ntyp=  6,
 ecutwfc=60.0,
 ecutrho=600.0,
 xdm=.true.,
/
&electrons
 conv_thr = 1d-8,
/
&ions
/
&cell
/
ATOMIC_SPECIES
C    12.010700 c.UPF
N    14.006700 n.UPF
O    15.999400 o.UPF
S    32.065000 s.UPF
F    18.998403 f.UPF
H     1.007940 h.UPF

ATOMIC_POSITIONS crystal
C    0.04298926     0.73967748     0.27257017 
C    0.10045727     0.66806413     0.34691086 
C    0.09632860     0.79892260     0.44358865 
C    0.19813779     0.61509808     0.28303752 
C    0.19074366     0.39998562     0.28825989 
N    0.11631969     0.33385900     0.34826367 
O    0.06047665     0.48185703     0.39161224 
S    0.27780657     0.23802983     0.22203089 
O    0.26492080     0.05073046     0.27503396 
O    0.36398711     0.34272325     0.20472225 
C    0.25373876     0.20664203     0.08187279 
F    0.21242048     0.37159916     0.06199998 
F    0.19290511     0.06231905     0.09273565 
C    0.33940652     0.16579390     0.99750385 
C    0.36188034     0.97640261     0.96542804 
C    0.44407053     0.93429530     0.89173298 
C    0.50460288     0.08165801     0.84906446 
C    0.48337829     0.27112115     0.88017245 
C    0.40151088     0.31085035     0.95435163 
F    0.38197109     0.49417831     0.98473070 
H    0.21523294     0.66798964     0.19947922 
H    0.25067851     0.66493056     0.32166495 
H    0.52919954     0.38837342     0.84871096 
H    0.56876618     0.04955718     0.79153711 
H    0.46075524     0.78703292     0.86765820 
H    0.31441108     0.86351797     0.99967962 
H    0.97215171     0.75701204     0.31814857 
H    0.04549550     0.63825135     0.20628695 
H    0.06851978     0.87829932     0.23737664 
H    0.02595747     0.81846667     0.49036473 
H    0.12459313     0.93960640     0.41554188 
H    0.13518666     0.73835518     0.49722853 
C    0.95701074     0.23967747     0.22742984 
C    0.89954274     0.16806413     0.15308908 
C    0.90367140     0.29892261     0.05641137 
C    0.80186221     0.11509809     0.21696250 
C    0.80925633     0.89998562     0.21174013 
N    0.88368030     0.83385901     0.15173634 
O    0.93952335     0.98185703     0.10838777 
S    0.72219343     0.73802984     0.27796912 
O    0.73507919     0.55073047     0.22496605 
O    0.63601288     0.84272326     0.29527777 
C    0.74626124     0.70664203     0.41812723 
F    0.78757954     0.87159916     0.43799995 
F    0.80709489     0.56231905     0.40726437 
C    0.66059347     0.66579390     0.50249617 
C    0.63811967     0.47640261     0.53457189 
C    0.55592946     0.43429530     0.60826704 
C    0.49539712     0.58165800     0.65093556 
C    0.51662170     0.77112114     0.61982757 
C    0.59848912     0.81085035     0.54564839 
F    0.61802891     0.99417831     0.51526932 
H    0.78476706     0.16798964     0.30052080 
H    0.74932148     0.16493057     0.17833507 
H    0.47080046     0.88837342     0.65128907 
H    0.43123384     0.54955717     0.70846283 
H    0.53924475     0.28703291     0.63234181 
H    0.68558893     0.36351797     0.50032031 
H    0.02784829     0.25701203     0.18185145 
H    0.95450452     0.13825135     0.29371299 
H    0.93148022     0.37829931     0.26262338 
H    0.97404252     0.31846668     0.00963528 
H    0.87540687     0.43960640     0.08445815 
H    0.86481335     0.23835519     0.00277140 
C    0.95701075     0.26032253     0.72742979 
C    0.89954273     0.33193587     0.65308910 
C    0.90367141     0.20107740     0.55641131 
C    0.80186220     0.38490191     0.71696253 
C    0.80925632     0.60001438     0.71174015 
N    0.88368032     0.66614099     0.65173629 
O    0.93952334     0.51814297     0.60838780 
S    0.72219344     0.76197016     0.77796907 
O    0.73507919     0.94926954     0.72496608 
O    0.63601288     0.65727674     0.79527780 
C    0.74626125     0.79335797     0.91812717 
F    0.78757953     0.62840084     0.93799998 
F    0.80709490     0.93768095     0.90726431 
C    0.66059347     0.83420610     0.00249620 
C    0.63811967     0.02359739     0.03457192 
C    0.55592946     0.06570470     0.10826707 
C    0.49539713     0.91834199     0.15093551 
C    0.51662172     0.72887885     0.11982752 
C    0.59848912     0.68914965     0.04564842 
F    0.61802891     0.50582169     0.01526935 
H    0.78476705     0.33201036     0.80052083 
H    0.74932147     0.33506943     0.67833509 
H    0.47080047     0.61162658     0.15128901 
H    0.43123383     0.95044282     0.20846286 
H    0.53924475     0.21296708     0.13234184 
H    0.68558893     0.13648203     0.00032034 
H    0.02784828     0.24298797     0.68185147 
H    0.95450451     0.36174865     0.79371301 
H    0.93148023     0.12170069     0.76262332 
H    0.97404253     0.18153333     0.50963523 
H    0.87540686     0.06039360     0.58445817 
H    0.86481334     0.26164482     0.50277143 
C    0.04298926     0.76032253     0.77257019 
C    0.10045727     0.83193588     0.84691087 
C    0.09632860     0.70107740     0.94358866 
C    0.19813779     0.88490192     0.78303753 
C    0.19074360     0.10001438     0.78825990 
N    0.11631969     0.16614100     0.84826368 
O    0.06047665     0.01814297     0.89161225 
S    0.27780657     0.26197017     0.72203090 
O    0.26492082     0.44926954     0.77503389 
O    0.36398713     0.15727675     0.70472217 
C    0.25373876     0.29335797     0.58187280 
F    0.21242048     0.12840084     0.56199999 
F    0.19290511     0.43768095     0.59273566 
C    0.33940652     0.33420610     0.49750386 
C    0.36188034     0.52359739     0.46542805 
C    0.44407055     0.56570469     0.39173291 
C    0.50460288     0.41834199     0.34906447 
C    0.48337829     0.22887885     0.38017246 
C    0.40151088     0.18914965     0.45435164 
F    0.38197109     0.00582169     0.48473071 
H    0.21523294     0.83201036     0.69947923 
H    0.25067851     0.83506944     0.82166496 
H    0.52919954     0.11162658     0.34871097 
H    0.56876618     0.45044282     0.29153711 
H    0.46075524     0.71296708     0.36765821 
H    0.31441108     0.63648203     0.49967963 
H    0.97215171     0.74298796     0.81814858 
H    0.04549550     0.86174865     0.70628696 
H    0.06851978     0.62170069     0.73737666 
H    0.02595747     0.68153333     0.99036475 
H    0.12459315     0.56039360     0.91554181 
H    0.13518666     0.76164483     0.99722855 

K_POINTS automatic
1 3 2  1 1 1

CELL_PARAMETERS bohr
   28.755773591508     0.000000000000     0.000000000000 
    0.000000000000    13.203667668563     0.000000000000 
    6.059573128659     0.000000000000    23.272717280234 
