&inputpp 
 prefix='crystal_open',
 seedname = 'feo_up',
 spin_component="up",
 write_mmn = .true.,
 write_amn = .true.,
/
