&control
 title='crystal',
 prefix='crystal',
 pseudo_dir='.',
 calculation='vc-relax',
/
&system
 ibrav=0,
 nat=    16,
 ntyp=  4,
 ecutwfc=60.0,
 ecutrho=600.0,
 xdm=.true.,
/
&electrons
 conv_thr = 1d-8,
/
&ions
/
&cell
/
ATOMIC_SPECIES
C    12.010700 c.UPF
O    15.999400 o.UPF
N    14.006700 n.UPF
H     1.007940 h.UPF

ATOMIC_POSITIONS crystal
C    0.00000000     0.50000000     0.32600000
C    0.50000000     0.00000000     0.67400000
O    0.00000000     0.50000000     0.59530000
O    0.50000000     0.00000000     0.40470000
N    0.14590000     0.64590000     0.17660000
N    0.35410000     0.14590000     0.82340000
N    0.85410000     0.35410000     0.17660000
N    0.64590000     0.85410000     0.82340000
H    0.25750000     0.75750000     0.28270000
H    0.24250000     0.25750000     0.71730000
H    0.74250000     0.24250000     0.28270000
H    0.75750000     0.74250000     0.71730000
H    0.14410000     0.64410000     0.96200000
H    0.35590000     0.14410000     0.03800000
H    0.85590000     0.35590000     0.96200000
H    0.64410000     0.85590000     0.03800000

K_POINTS automatic
4 4 5  1 1 1

CELL_PARAMETERS bohr
   10.516325929510     0.000000000000     0.000000000000
    0.000000000000    10.516325929510     0.000000000000
    0.000000000000     0.000000000000     8.851477206440
