%chk=015_write_gau.chk
%nprocs=8
%mem=2GB
#p pbepbe/sto-3g int(grid=ultrafine) pop=regular fmm=(print)
   iop1=timestamp iop(5/13=1,5/33=1,5/181=10,5/184=186)
   scf=(novaracc,noincfock,tight)

title

0 1
C  0.00000000     0.00000000     1.67400000    
C  0.00000000     0.00000000     5.02200000    
C  -0.00000001    1.41797226     1.67400000    
C  1.22800001     0.70898613     5.02200000    
Tv 2.45600000     0.00000000     0.00000000    
Tv -1.22800000    2.12695839     0.00000000    
Tv 0.00000000     0.00000000     6.69600000    

