eem
cell 11.938000000  12.376000000  3.655200000   90.00000   120.90000  90.00000   
fractional
    C 0.151910000     0.209330000     0.009130000     
    C 0.348090000     0.709330000     0.990870000     
    C 0.848090000     0.790670000     0.990870000     
    C 0.651910000     0.290670000     0.009130000     
    C 0.179880000     0.012370000     0.034940000     
    C 0.320120000     0.512370000     0.965060000     
    C 0.820120000     0.987630000     0.965060000     
    C 0.679880000     0.487630000     0.034940000     
    C 0.305190000     0.028570000     0.081930000     
    C 0.194810000     0.528570000     0.918070000     
    C 0.694810000     0.971430000     0.918070000     
    C 0.805190000     0.471430000     0.081930000     
    C 0.346200000     0.129770000     0.089050000     
    C 0.153800000     0.629770000     0.910950000     
    C 0.653800000     0.870230000     0.910950000     
    C 0.846200000     0.370230000     0.089050000     
    H 0.427900000     0.146400000     0.112000000     
    H 0.072100000     0.646400000     0.888000000     
    H 0.572100000     0.853600000     0.888000000     
    H 0.927900000     0.353600000     0.112000000     
    H 0.296400000     0.280400000     0.041600000     
    H 0.203600000     0.780400000     0.958400000     
    H 0.703600000     0.719600000     0.958400000     
    H 0.796400000     0.219600000     0.041600000     
    H 0.034300000     0.094700000     0.968000000     
    H 0.465700000     0.594700000     0.032000000     
    H 0.965700000     0.905300000     0.032000000     
    H 0.534300000     0.405300000     0.968000000     
    H 0.353600000     0.967800000     0.098600000     
    H 0.146400000     0.467800000     0.901400000     
    H 0.646400000     0.032200000     0.901400000     
    H 0.853600000     0.532200000     0.098600000     
    N 0.272830000     0.217500000     0.053360000     
    N 0.227170000     0.717500000     0.946640000     
    N 0.727170000     0.782500000     0.946640000     
    N 0.772830000     0.282500000     0.053360000     
    N 0.112080000     0.104680000     0.004060000     
    N 0.387920000     0.604680000     0.995940000     
    N 0.887920000     0.895320000     0.995940000     
    N 0.612080000     0.395320000     0.004060000     
    O 0.084970000     0.286770000     0.978270000     
    O 0.415030000     0.786770000     0.021730000     
    O 0.915030000     0.713230000     0.021730000     
    O 0.584970000     0.213230000     0.978270000     
    O 0.129870000     0.922940000     0.019620000     
    O 0.370130000     0.422940000     0.980380000     
    O 0.870130000     0.077060000     0.980380000     
    O 0.629870000     0.577060000     0.019620000     
