## FHIaims input file generated by critic2.
lattice_vector 11.9380000000      0.0000000000       0.0000000000      
lattice_vector 0.0000000000       12.3760000000      0.0000000000      
lattice_vector -1.8770959845      0.0000000000       3.1363988434      
atom  1.7963636937       2.5906680800       0.0286353214       C         
atom  2.2955403218       8.7786680800       3.1077635220       C         
atom  8.2645403218       9.7853319200       3.1077635220       C         
atom  7.7653636937       3.5973319200       0.0286353214       C         
atom  2.0818217063       0.1530911200       0.1095857756       C         
atom  2.0100823092       6.3410911200       3.0268130678       C         
atom  7.9790823092       12.2229088800      3.0268130678       C         
atom  8.0508217063       6.0349088800       0.1095857756       C         
atom  3.4895677460       0.3535823200       0.2569651572       C         
atom  0.6023362695       6.5415823200       2.8794336862       C         
atom  6.5713362695       12.0224176800      2.8794336862       C         
atom  9.4585677460       5.8344176800       0.2569651572       C         
atom  3.9657802026       1.6060335200       0.2792963170       C         
atom  0.1261238129       7.7940335200       2.8571025264       C         
atom  6.0951238129       10.7699664800      2.8571025264       C         
atom  9.9347802026       4.5819664800       0.2792963170       C         
atom  4.8980354497       1.8118464000       0.3512766705       H         
atom  -0.8061314343      7.9998464000       2.7851221729       H         
atom  5.1628685657       10.5641536000      2.7851221729       H         
atom  10.8670354497      4.3761536000       0.3512766705       H         
atom  3.4603360070       3.4702304000       0.1304741919       H         
atom  0.6315680084       9.6582304000       3.0059246515       H         
atom  6.6005680084       8.9057696000       3.0059246515       H         
atom  9.4293360070       2.7177696000       0.1304741919       H         
atom  -1.4075555130      1.1720072000       3.0360340804       H         
atom  5.4994595285       7.3600072000       0.1003647630       H         
atom  11.4684595285      11.2039928000      0.1003647630       H         
atom  4.5614444870       5.0159928000       3.0360340804       H         
atom  4.0361951359       11.9774928000      0.3092489260       H         
atom  0.0557088796       5.7894928000       2.8271499174       H         
atom  6.0247088796       0.3985072000       2.8271499174       H         
atom  10.0051951359      6.5865072000       0.3092489260       H         
atom  3.1568826983       2.6917800000       0.1673582423       N         
atom  0.9350213172       8.8797800000       2.9690406011       N         
atom  6.9040213172       9.6842200000       2.9690406011       N         
atom  9.1258826983       3.4962200000       0.1673582423       N         
atom  1.3303900303       1.2955196800       0.0127337793       N         
atom  2.7615139852       7.4835196800       3.1236650641       N         
atom  8.7305139852       11.0804803200      3.1236650641       N         
atom  7.2993900303       4.8924803200       0.0127337793       N         
atom  -0.8219348288      3.5490655200       3.0682448965       O         
atom  4.9138388443       9.7370655200       0.0681539469       O         
atom  10.8828388443      8.8269344800       0.0681539469       O         
atom  5.1470651712       2.6389344800       3.0682448965       O         
atom  1.5135594368       11.4223054400      0.0615361453       O         
atom  2.5783445787       5.2343054400       3.0748626981       O         
atom  8.5473445787       0.9536945600       3.0748626981       O         
atom  7.4825594368       7.1416945600       0.0615361453       O         
