&inputpp 
 prefix='crystal_open',
 seedname = 'mgo',
 write_mmn = .true.,
 write_amn = .true.,
/
