&control
 title='crystal',
 prefix='crystal',
 pseudo_dir='../../data',
/
&system
 ibrav=0,
 celldm(1)=1.0,
 nat=2,
 ntyp=2,
 ecutwfc=80.0,
 ecutrho=320.0,
 nosym=.true.,
/
&electrons
 conv_thr = 1d-8,
/
ATOMIC_SPECIES
o     15.999400 o.UPF
mg    24.305000 mg.UPF

ATOMIC_POSITIONS crystal
mg       0.500000000   0.000000000   0.000000000
o        0.000000000   0.500000000   0.500000000

K_POINTS automatic
4 4 4 0 0 0

CELL_PARAMETERS cubic
  -0.000000000   3.901537427  -3.901537427
   3.901540775   3.901536617  -0.000000811
   3.901540775   0.000000811  -3.901536617
