&inputpp 
 outdir = '.',
 prefix='crystal_open',
 seedname = 'mgo',
/
